unsat
(error "line 663 column 17: model is not available")
(error "line 664 column 17: model is not available")
(error "line 665 column 18: model is not available")
(error "line 666 column 18: model is not available")
(error "line 667 column 18: model is not available")
(error "line 668 column 18: model is not available")
(error "line 669 column 18: model is not available")
(error "line 670 column 18: model is not available")
(error "line 671 column 18: model is not available")
(error "line 672 column 17: model is not available")
(error "line 673 column 17: model is not available")
(error "line 674 column 17: model is not available")
(error "line 675 column 17: model is not available")
(error "line 676 column 17: model is not available")
(error "line 677 column 17: model is not available")
(error "line 678 column 17: model is not available")
(error "line 679 column 17: model is not available")
(error "line 680 column 38: model is not available")
(error "line 681 column 45: model is not available")
(error "line 682 column 38: model is not available")
(error "line 683 column 45: model is not available")
(error "line 684 column 46: model is not available")
(error "line 685 column 53: model is not available")
(error "line 686 column 40: model is not available")
(error "line 687 column 47: model is not available")
(error "line 688 column 38: model is not available")
(error "line 689 column 45: model is not available")
(error "line 690 column 38: model is not available")
(error "line 691 column 45: model is not available")
(error "line 692 column 41: model is not available")
(error "line 693 column 48: model is not available")
(error "line 694 column 41: model is not available")
(error "line 695 column 48: model is not available")
(error "line 696 column 41: model is not available")
(error "line 697 column 48: model is not available")
(error "line 698 column 41: model is not available")
(error "line 699 column 41: model is not available")
(error "line 700 column 48: model is not available")
(error "line 701 column 37: model is not available")
(error "line 702 column 44: model is not available")
(error "line 703 column 42: model is not available")
(error "line 704 column 42: model is not available")
(error "line 705 column 42: model is not available")
(error "line 706 column 38: model is not available")
(error "line 707 column 38: model is not available")
(error "line 708 column 38: model is not available")
(error "line 709 column 38: model is not available")
(error "line 710 column 38: model is not available")
(error "line 711 column 41: model is not available")
(error "line 712 column 48: model is not available")
(error "line 713 column 22: model is not available")
(error "line 714 column 20: model is not available")
(error "line 715 column 22: model is not available")
(error "line 716 column 22: model is not available")
(error "line 717 column 29: model is not available")
(error "line 718 column 38: model is not available")
(error "line 719 column 18: model is not available")
(error "line 720 column 25: model is not available")
(error "line 721 column 18: model is not available")
(error "line 722 column 25: model is not available")
(error "line 723 column 18: model is not available")
(error "line 724 column 18: model is not available")
(error "line 725 column 25: model is not available")
(error "line 726 column 18: model is not available")
(error "line 727 column 18: model is not available")
(error "line 728 column 25: model is not available")
(error "line 729 column 18: model is not available")
(error "line 730 column 25: model is not available")
(error "line 731 column 18: model is not available")
(error "line 732 column 18: model is not available")
(error "line 733 column 25: model is not available")
(error "line 734 column 18: model is not available")
(error "line 735 column 25: model is not available")
(error "line 736 column 18: model is not available")
(error "line 737 column 18: model is not available")
(error "line 738 column 25: model is not available")
(error "line 739 column 18: model is not available")
(error "line 740 column 18: model is not available")
(error "line 741 column 25: model is not available")
(error "line 742 column 18: model is not available")
(error "line 743 column 18: model is not available")
(error "line 744 column 25: model is not available")
(error "line 745 column 36: model is not available")
(error "line 746 column 36: model is not available")
(error "line 747 column 36: model is not available")
(error "line 748 column 35: model is not available")
(error "line 749 column 35: model is not available")
(error "line 750 column 35: model is not available")
(error "line 751 column 35: model is not available")
(error "line 752 column 31: model is not available")
(error "line 753 column 33: model is not available")
(error "line 754 column 40: model is not available")
(error "line 755 column 33: model is not available")
(error "line 756 column 40: model is not available")
(error "line 757 column 31: model is not available")
(error "line 758 column 33: model is not available")
(error "line 759 column 40: model is not available")
(error "line 760 column 33: model is not available")
(error "line 761 column 40: model is not available")
(error "line 762 column 31: model is not available")
(error "line 763 column 31: model is not available")
(error "line 764 column 52: model is not available")
(error "line 765 column 51: model is not available")
(error "line 766 column 51: model is not available")
(error "line 767 column 51: model is not available")
(error "line 768 column 52: model is not available")
(error "line 769 column 51: model is not available")
(error "line 770 column 51: model is not available")
(error "line 771 column 51: model is not available")
(error "line 772 column 50: model is not available")
(error "line 773 column 50: model is not available")
(error "line 774 column 50: model is not available")
(error "line 775 column 52: model is not available")
(error "line 776 column 56: model is not available")
(error "line 777 column 55: model is not available")
(error "line 778 column 46: model is not available")
(error "line 779 column 46: model is not available")
(error "line 780 column 46: model is not available")
(error "line 781 column 46: model is not available")
(error "line 782 column 54: model is not available")
(error "line 783 column 54: model is not available")
(error "line 784 column 54: model is not available")
(error "line 785 column 54: model is not available")
(error "line 786 column 54: model is not available")
(error "line 787 column 54: model is not available")
(error "line 788 column 40: model is not available")
(error "line 789 column 40: model is not available")
(error "line 790 column 40: model is not available")
(error "line 791 column 40: model is not available")
(error "line 792 column 41: model is not available")
(error "line 793 column 41: model is not available")
(error "line 794 column 41: model is not available")
(error "line 795 column 41: model is not available")
(error "line 796 column 50: model is not available")
(error "line 797 column 50: model is not available")
(error "line 798 column 50: model is not available")
(error "line 799 column 50: model is not available")
(error "line 800 column 43: model is not available")
(error "line 801 column 43: model is not available")
(error "line 802 column 43: model is not available")
(error "line 803 column 43: model is not available")
(error "line 804 column 26: model is not available")
(error "line 805 column 27: model is not available")
(error "line 806 column 34: model is not available")
(error "line 807 column 34: model is not available")
(error "line 808 column 30: model is not available")
(error "line 809 column 30: model is not available")
(error "line 810 column 29: model is not available")
(error "line 811 column 29: model is not available")
(error "line 812 column 29: model is not available")
(error "line 813 column 29: model is not available")
(error "line 814 column 28: model is not available")
(error "line 815 column 34: model is not available")
(error "line 816 column 34: model is not available")
(error "line 817 column 29: model is not available")
(error "line 818 column 29: model is not available")
(error "line 819 column 29: model is not available")
(error "line 820 column 29: model is not available")
(error "line 821 column 28: model is not available")
(error "line 823 column 10: model is not available")
(:added-eqs                      157
 :arith-bound-propagations-cheap 23
 :arith-bound-propagations-lp    9
 :arith-lower                    25
 :arith-make-feasible            23
 :arith-max-columns              43
 :arith-max-rows                 24
 :arith-propagations             23
 :arith-upper                    18
 :binary-propagations            1165
 :bv-bit2core                    1459
 :bv-diseqs                      2
 :bv-dynamic-diseqs              3
 :conflicts                      22
 :decisions                      60
 :del-clause                     189
 :eliminated-applications        18
 :eliminated-vars                11
 :max-memory                     3.55
 :memory                         2.88
 :minimized-lits                 5
 :mk-bool-var                    499
 :mk-clause                      538
 :num-allocs                     588160
 :num-checks                     1
 :propagations                   1923
 :rlimit-count                   20593
 :time                           0.01
 :total-time                     0.01)

real	0m0.014s
user	0m0.010s
sys	0m0.003s
State: RE Run_time: 0.015542030334472656